from,to,distance
1,1,0
1,2,4
1,3,4
1,4,4
1,5,4
1,6,6
2,1,10000
2,2,0
2,3,2
2,4,5
2,5,5
2,6,4
3,1,10000
3,2,2
3,3,0
3,4,5
3,5,5
3,6,4
4,1,10000
4,2,6
4,3,6
4,4,0
4,5,2
4,6,4
5,1,10000
5,2,6
5,3,6
5,4,2
5,5,0
5,6,4
6,1,10000
6,2,10000
6,3,10000
6,4,10000
6,5,10000
6,6,0
